(set-info :smt-lib-version 2.6)
(set-logic QF_SLIA)
(set-info :source |
Generated by: Hung-En Wang, Shih-Yu Chen, Fang Yu, and Jie-Hong R. Jiang
Generated on: 2019-02-28
Generator: modified from Kaluza benchmarks
Application: Security analysis of string manipulating web applications with string length constraints
Target solver: ABC, CVC4, Norn, S3P, Trau, Z3-str3
Publication:
Hung-En Wang, Shih-Yu Chen, Fang Yu, Jie-Hong R. Jiang:
A symbolic model checking approach to the analysis of string and length constraints. ASE 2018: 623-633
|)
(set-info :license "https://creativecommons.org/licenses/by/4.0/")
(set-info :category "industrial")
(set-info :status unknown)

(declare-fun T_12 () Bool)
(declare-fun T_13 () Bool)
(declare-fun T_7 () Bool)
(declare-fun T_8 () Bool)
(declare-fun T_9 () Bool)
(declare-fun T_SELECT_4 () Bool)
(declare-fun T_SELECT_5 () Bool)
(declare-fun T_a () Bool)
(declare-fun T_c () Bool)
(declare-fun T_e () Bool)
(declare-fun T_f () Bool)
(declare-fun I0_23 () Int)
(declare-fun I1_23 () Int)
(declare-fun I2_23 () Int)
(declare-fun PCTEMP_LHS_4 () Int)
(declare-fun PCTEMP_LHS_5 () Int)
(declare-fun T_10 () Int)
(declare-fun NEW_DGNode_5 () String)
(declare-fun NEW_DGNode_6 () String)
(declare-fun NEW_DGNode_8 () String)
(declare-fun NEW_DGNode_9 () String)
(declare-fun PCTEMP_LHS_6 () String)
(declare-fun T1_23 () String)
(declare-fun T2_23 () String)
(declare-fun T3_23 () String)
(declare-fun var_0xINPUT_12454 () String)
(assert (= var_0xINPUT_12454 NEW_DGNode_8))
(assert (= NEW_DGNode_8 NEW_DGNode_9))
(assert (= NEW_DGNode_8 NEW_DGNode_5))
(assert (= NEW_DGNode_5 NEW_DGNode_6))
(assert (= NEW_DGNode_5 ""))
(assert (= NEW_DGNode_6 ""))
(assert (= NEW_DGNode_9 (str.++ T1_23 T2_23)))
(assert (= T2_23 (str.++ PCTEMP_LHS_6 T3_23)))
(assert (= PCTEMP_LHS_6 "-"))
(assert (= T_SELECT_5 (not (= PCTEMP_LHS_5 (- 1)))))
(assert T_f)
(assert (= T_f (not T_e)))
(assert (= T_e (< PCTEMP_LHS_5 0)))
(assert (= T_SELECT_4 (not (= PCTEMP_LHS_4 (- 1)))))
(assert T_c)
(assert (= T_c (< (- 1) PCTEMP_LHS_4)))
(assert (= T_10 (+ PCTEMP_LHS_4 7)))
(assert (>= T_10 0))
(assert (>= PCTEMP_LHS_5 T_10))
(assert (= I0_23 (- PCTEMP_LHS_5 T_10)))
(assert (<= PCTEMP_LHS_5 I1_23))
(assert (= I2_23 I1_23))
(assert (= I1_23 (str.len var_0xINPUT_12454))) ; len 0
(assert T_7)
(assert T_8)
(assert (= T_8 (not T_7)))
(assert T_9)
(assert T_a)
(assert (= T_a (not T_9)))
(assert (= T_10 (str.len T1_23))) ; len 1
(assert (= I0_23 (str.len PCTEMP_LHS_6))) ; len 2
(assert T_12)
(assert T_13)
(assert (= T_13 (not T_12)))
(check-sat)
(exit)
